p cnf 1042 2962
-56 4 0
-56 6 0
56 -4 -6 0
-57 -2 0
-57 -8 0
57 2 8 0
-58 -56 0
-58 -57 0
58 56 57 0
-59 6 0
-59 -7 0
59 -6 7 0
-60 3 0
-60 6 0
60 -3 -6 0
-61 59 0
-61 60 0
61 -59 -60 0
-62 -58 0
-62 -61 0
62 58 61 0
-63 -2 0
-63 3 0
63 2 -3 0
-64 -60 0
-64 63 0
64 60 -63 0
-65 1 0
-65 2 0
65 -1 -2 0
-66 5 0
-66 -10 0
66 -5 10 0
-67 65 0
-67 66 0
67 -65 -66 0
-68 -64 0
-68 -67 0
68 64 67 0
-69 -62 0
-69 -68 0
69 62 68 0
-70 5 0
-70 -11 0
70 -5 11 0
-71 66 0
-71 -70 0
71 -66 70 0
-72 5 0
-72 -8 0
72 -5 8 0
-73 -4 0
-73 -11 0
73 4 11 0
-74 72 0
-74 -73 0
74 -72 73 0
-75 -71 0
-75 74 0
75 71 -74 0
-76 -65 0
-76 -70 0
76 65 70 0
-77 67 0
-77 -76 0
77 -67 76 0
-78 -75 0
-78 -77 0
78 75 77 0
-79 -69 0
-79 78 0
79 69 -78 0
-80 10 0
-80 11 0
80 -10 -11 0
-81 -7 0
-81 -9 0
81 7 9 0
-82 80 0
-82 81 0
82 -80 -81 0
-83 65 0
-83 -66 0
83 -65 66 0
-84 67 0
-84 -83 0
84 -67 83 0
-85 82 0
-85 84 0
85 -82 -84 0
-86 -1 0
-86 9 0
86 1 -9 0
-87 80 0
-87 86 0
87 -80 -86 0
-88 -11 0
-88 -12 0
88 11 12 0
-89 73 0
-89 88 0
89 -73 -88 0
-90 -87 0
-90 89 0
90 87 -89 0
-91 1 0
-91 4 0
91 -1 -4 0
-92 4 0
-92 5 0
92 -4 -5 0
-93 -91 0
-93 92 0
93 91 -92 0
-94 64 0
-94 93 0
94 -64 -93 0
-95 -90 0
-95 94 0
95 90 -94 0
-96 85 0
-96 -95 0
96 -85 95 0
-97 -79 0
-97 -96 0
97 79 96 0
-98 -3 0
-98 9 0
98 3 -9 0
-99 -93 0
-99 98 0
99 93 -98 0
-100 58 0
-100 -87 0
100 -58 87 0
-101 -99 0
-101 -100 0
101 99 100 0
-102 -75 0
-102 84 0
102 75 -84 0
-103 101 0
-103 -102 0
103 -101 102 0
-104 -96 0
-104 103 0
104 96 -103 0
-105 -97 0
-105 104 0
105 97 -104 0
-106 -63 0
-106 98 0
106 63 -98 0
-107 -61 0
-107 106 0
107 61 -106 0
-108 77 0
-108 -107 0
108 -77 107 0
-109 -75 0
-109 100 0
109 75 -100 0
-110 -108 0
-110 -109 0
110 108 109 0
-111 82 0
-111 106 0
111 -82 -106 0
-112 -8 0
-112 11 0
112 8 -11 0
-113 -88 0
-113 -112 0
113 88 112 0
-114 57 0
-114 -113 0
114 -57 113 0
-115 111 0
-115 114 0
115 -111 -114 0
-116 86 0
-116 112 0
116 -86 -112 0
-117 60 0
-117 116 0
117 -60 -116 0
-118 -90 0
-118 117 0
118 90 -117 0
-119 115 0
-119 118 0
119 -115 -118 0
-120 -110 0
-120 -119 0
120 110 119 0
-121 -77 0
-121 -107 0
121 77 107 0
-122 74 0
-122 -76 0
122 -74 76 0
-123 -75 0
-123 -122 0
123 75 122 0
-124 -121 0
-124 123 0
124 121 -123 0
-125 -62 0
-125 -111 0
125 62 111 0
-126 -94 0
-126 -125 0
126 94 125 0
-127 124 0
-127 -126 0
127 -124 126 0
-128 -120 0
-128 -127 0
128 120 127 0
-129 105 0
-129 -128 0
129 -105 128 0
-130 -9 0
-130 12 0
130 9 -12 0
-131 -59 0
-131 -130 0
131 59 130 0
-132 114 0
-132 131 0
132 -114 -131 0
-133 111 0
-133 132 0
133 -111 -132 0
-134 103 0
-134 133 0
134 -103 -133 0
-135 -117 0
-135 -122 0
135 117 122 0
-136 110 0
-136 135 0
136 -110 -135 0
-137 -134 0
-137 136 0
137 134 -136 0
-138 -105 0
-138 137 0
138 105 -137 0
-139 -129 0
-139 -138 0
139 129 138 0
-140 -134 0
-140 -136 0
140 134 136 0
-141 -137 0
-141 140 0
141 137 -140 0
-142 13 0
-142 -64 0
142 -13 64 0
-143 -70 0
-143 93 0
143 70 -93 0
-144 -142 0
-144 143 0
144 142 -143 0
-145 -65 0
-145 72 0
145 65 -72 0
-146 -80 0
-146 81 0
146 80 -81 0
-147 -145 0
-147 146 0
147 145 -146 0
-148 117 0
-148 147 0
148 -117 -147 0
-149 -144 0
-149 -148 0
149 144 148 0
-150 96 0
-150 -149 0
150 -96 149 0
-151 -14 0
-151 -150 0
151 14 150 0
-152 -14 0
-152 150 0
152 14 -150 0
-153 -151 0
-153 152 0
153 151 -152 0
-154 141 0
-154 -153 0
154 -141 153 0
-155 139 0
-155 -154 0
155 -139 154 0
-156 141 0
-156 152 0
156 -141 -152 0
-157 154 0
-157 156 0
157 -154 -156 0
-158 155 0
-158 -157 0
158 -155 157 0
-159 -16 0
-159 -158 0
159 16 158 0
-160 -14 0
-160 -136 0
160 14 136 0
-161 -140 0
-161 -160 0
161 140 160 0
-162 -113 0
-162 -131 0
162 113 131 0
-163 13 0
-163 71 0
163 -13 -71 0
-164 -162 0
-164 163 0
164 162 -163 0
-165 103 0
-165 164 0
165 -103 -164 0
-166 -150 0
-166 165 0
166 150 -165 0
-167 97 0
-167 165 0
167 -97 -165 0
-168 166 0
-168 167 0
168 -166 -167 0
-169 161 0
-169 168 0
169 -161 -168 0
-170 160 0
-170 -167 0
170 -160 167 0
-171 129 0
-171 -170 0
171 -129 170 0
-172 154 0
-172 -171 0
172 -154 171 0
-173 169 0
-173 172 0
173 -169 -172 0
-174 -151 0
-174 152 0
174 151 -152 0
-175 -170 0
-175 -174 0
175 170 174 0
-176 -169 0
-176 175 0
176 169 -175 0
-177 60 0
-177 73 0
177 -60 -73 0
-178 -4 0
-178 9 0
178 4 -9 0
-179 8 0
-179 -12 0
179 -8 12 0
-180 -178 0
-180 179 0
180 178 -179 0
-181 177 0
-181 -180 0
181 -177 180 0
-182 64 0
-182 -71 0
182 -64 71 0
-183 181 0
-183 182 0
183 -181 -182 0
-184 84 0
-184 111 0
184 -84 -111 0
-185 -183 0
-185 -184 0
185 183 184 0
-186 -79 0
-186 185 0
186 79 -185 0
-187 14 0
-187 -186 0
187 -14 186 0
-188 166 0
-188 -187 0
188 -166 187 0
-189 -140 0
-189 -167 0
189 140 167 0
-190 -188 0
-190 -189 0
190 188 189 0
-191 -138 0
-191 170 0
191 138 -170 0
-192 190 0
-192 191 0
192 -190 -191 0
-193 176 0
-193 192 0
193 -176 -192 0
-194 -173 0
-194 -193 0
194 173 193 0
-195 -138 0
-195 188 0
195 138 -188 0
-196 190 0
-196 195 0
196 -190 -195 0
-197 157 0
-197 -196 0
197 -157 196 0
-198 -193 0
-198 -197 0
198 193 197 0
-199 -194 0
-199 -198 0
199 194 198 0
-200 159 0
-200 -199 0
200 -159 199 0
-201 191 0
-201 195 0
201 -191 -195 0
-202 -172 0
-202 201 0
202 172 -201 0
-203 15 0
-203 -176 0
203 -15 176 0
-204 202 0
-204 203 0
204 -202 -203 0
-205 171 0
-205 -191 0
205 -171 191 0
-206 -188 0
-206 189 0
206 188 -189 0
-207 156 0
-207 -206 0
207 -156 206 0
-208 -205 0
-208 207 0
208 205 -207 0
-209 -15 0
-209 192 0
209 15 -192 0
-210 208 0
-210 209 0
210 -208 -209 0
-211 204 0
-211 -210 0
211 -204 210 0
-212 -173 0
-212 209 0
212 173 -209 0
-213 194 0
-213 -212 0
213 -194 212 0
-214 211 0
-214 -213 0
214 -211 213 0
-215 -200 0
-215 -214 0
215 200 214 0
-216 194 0
-216 204 0
216 -194 -204 0
-217 -198 0
-217 210 0
217 198 -210 0
-218 216 0
-218 217 0
218 -216 -217 0
-219 -197 0
-219 -209 0
219 197 209 0
-220 16 0
-220 219 0
220 -16 -219 0
-221 -17 0
-221 -220 0
221 17 220 0
-222 -218 0
-222 -221 0
222 218 221 0
-223 215 0
-223 222 0
223 -215 -222 0
-224 213 0
-224 -217 0
224 -213 217 0
-225 -218 0
-225 -224 0
225 218 224 0
-226 -214 0
-226 -218 0
226 214 218 0
-227 -225 0
-227 226 0
227 225 -226 0
-228 -223 0
-228 227 0
228 223 -227 0
-229 -155 0
-229 176 0
229 155 -176 0
-230 208 0
-230 229 0
230 -208 -229 0
-231 -212 0
-231 230 0
231 212 -230 0
-232 -17 0
-232 -231 0
232 17 231 0
-233 212 0
-233 -216 0
233 -212 216 0
-234 -232 0
-234 -233 0
234 232 233 0
-235 200 0
-235 -218 0
235 -200 218 0
-236 234 0
-236 -235 0
236 -234 235 0
-237 223 0
-237 236 0
237 -223 -236 0
-238 -228 0
-238 237 0
238 228 -237 0
-239 -176 0
-239 -201 0
239 176 201 0
-240 158 0
-240 239 0
240 -158 -239 0
-241 -158 0
-241 203 0
241 158 -203 0
-242 -240 0
-242 241 0
242 240 -241 0
-243 -231 0
-243 242 0
243 231 -242 0
-244 -17 0
-244 -211 0
244 17 211 0
-245 243 0
-245 244 0
245 -243 -244 0
-246 -233 0
-246 -245 0
246 233 245 0
-247 -225 0
-247 -243 0
247 225 243 0
-248 -246 0
-248 -247 0
248 246 247 0
-249 -19 0
-249 -248 0
249 19 248 0
-250 238 0
-250 249 0
250 -238 -249 0
-251 159 0
-251 199 0
251 -159 -199 0
-252 -221 0
-252 -251 0
252 221 251 0
-253 226 0
-253 252 0
253 -226 -252 0
-254 -236 0
-254 253 0
254 236 -253 0
-255 233 0
-255 245 0
255 -233 -245 0
-256 246 0
-256 255 0
256 -246 -255 0
-257 254 0
-257 -256 0
257 -254 256 0
-258 -238 0
-258 257 0
258 238 -257 0
-259 -250 0
-259 258 0
259 250 -258 0
-260 227 0
-260 -253 0
260 -227 253 0
-261 254 0
-261 -260 0
261 -254 260 0
-262 257 0
-262 -261 0
262 -257 261 0
-263 -226 0
-263 -234 0
263 226 234 0
-264 -247 0
-264 -263 0
264 247 263 0
-265 224 0
-265 -233 0
265 -224 233 0
-266 -214 0
-266 -244 0
266 214 244 0
-267 265 0
-267 266 0
267 -265 -266 0
-268 18 0
-268 267 0
268 -18 -267 0
-269 264 0
-269 268 0
269 -264 -268 0
-270 -248 0
-270 256 0
270 248 -256 0
-271 -269 0
-271 270 0
271 269 -270 0
-272 -262 0
-272 271 0
272 262 -271 0
-273 259 0
-273 -272 0
273 -259 272 0
-274 247 0
-274 -255 0
274 -247 255 0
-275 237 0
-275 274 0
275 -237 -274 0
-276 268 0
-276 274 0
276 -268 -274 0
-277 275 0
-277 -276 0
277 -275 276 0
-278 238 0
-278 -261 0
278 -238 261 0
-279 -277 0
-279 -278 0
279 277 278 0
-280 257 0
-280 -276 0
280 -257 276 0
-281 -261 0
-281 -280 0
281 261 280 0
-282 279 0
-282 281 0
282 -279 -281 0
-283 273 0
-283 -282 0
283 -273 282 0
-284 -260 0
-284 267 0
284 260 -267 0
-285 -269 0
-285 -284 0
285 269 284 0
-286 -281 0
-286 -285 0
286 281 285 0
-287 -273 0
-287 -286 0
287 273 286 0
-288 283 0
-288 287 0
288 -283 -287 0
-289 -259 0
-289 272 0
289 259 -272 0
-290 286 0
-290 -289 0
290 -286 289 0
-291 19 0
-291 248 0
291 -19 -248 0
-292 236 0
-292 291 0
292 -236 -291 0
-293 285 0
-293 292 0
293 -285 -292 0
-294 280 0
-294 285 0
294 -280 -285 0
-295 293 0
-295 -294 0
295 -293 294 0
-296 -258 0
-296 -285 0
296 258 285 0
-297 -277 0
-297 -296 0
297 277 296 0
-298 -295 0
-298 297 0
298 295 -297 0
-299 -290 0
-299 298 0
299 290 -298 0
-300 288 0
-300 -299 0
300 -288 299 0
-301 -268 0
-301 269 0
301 268 -269 0
-302 280 0
-302 301 0
302 -280 -301 0
-303 296 0
-303 -302 0
303 -296 302 0
-304 297 0
-304 303 0
304 -297 -303 0
-305 290 0
-305 -304 0
305 -290 304 0
-306 288 0
-306 -305 0
306 -288 305 0
-307 300 0
-307 306 0
307 -300 -306 0
-308 293 0
-308 -295 0
308 -293 295 0
-309 -304 0
-309 -308 0
309 304 308 0
-310 -288 0
-310 309 0
310 288 -309 0
-311 299 0
-311 -305 0
311 -299 305 0
-312 310 0
-312 -311 0
312 -310 311 0
-313 307 0
-313 -312 0
313 -307 312 0
-314 250 0
-314 -258 0
314 -250 258 0
-315 269 0
-315 -271 0
315 -269 271 0
-316 -314 0
-316 -315 0
316 314 315 0
-317 -286 0
-317 -316 0
317 286 316 0
-318 -290 0
-318 -317 0
318 290 317 0
-319 305 0
-319 318 0
319 -305 -318 0
-320 20 0
-320 317 0
320 -20 -317 0
-321 20 0
-321 -283 0
321 -20 283 0
-322 320 0
-322 321 0
322 -320 -321 0
-323 -319 0
-323 -322 0
323 319 322 0
-324 -311 0
-324 318 0
324 311 -318 0
-325 -323 0
-325 -324 0
325 323 324 0
-326 313 0
-326 -325 0
326 -313 325 0
-327 -259 0
-327 -281 0
327 259 281 0
-328 -289 0
-328 -327 0
328 289 327 0
-329 281 0
-329 -294 0
329 -281 294 0
-330 297 0
-330 -329 0
330 -297 329 0
-331 328 0
-331 -330 0
331 -328 330 0
-332 -309 0
-332 -331 0
332 309 331 0
-333 298 0
-333 -308 0
333 -298 308 0
-334 -320 0
-334 333 0
334 320 -333 0
-335 -332 0
-335 -334 0
335 332 334 0
-336 -300 0
-336 -334 0
336 300 334 0
-337 335 0
-337 336 0
337 -335 -336 0
-338 290 0
-338 -305 0
338 -290 305 0
-339 -332 0
-339 338 0
339 332 -338 0
-340 -324 0
-340 -339 0
340 324 339 0
-341 -337 0
-341 340 0
341 337 -340 0
-342 -326 0
-342 341 0
342 326 -341 0
-343 328 0
-343 330 0
343 -328 -330 0
-344 333 0
-344 343 0
344 -333 -343 0
-345 338 0
-345 -344 0
345 -338 344 0
-346 338 0
-346 345 0
346 -338 -345 0
-347 -21 0
-347 -346 0
347 21 346 0
-348 -306 0
-348 310 0
348 306 -310 0
-349 332 0
-349 334 0
349 -332 -334 0
-350 -348 0
-350 349 0
350 348 -349 0
-351 -325 0
-351 350 0
351 325 -350 0
-352 347 0
-352 -351 0
352 -347 351 0
-353 -342 0
-353 -352 0
353 342 352 0
-354 22 0
-354 -347 0
354 -22 347 0
-355 -342 0
-355 354 0
355 342 -354 0
-356 353 0
-356 -355 0
356 -353 355 0
-357 -307 0
-357 345 0
357 307 -345 0
-358 350 0
-358 357 0
358 -350 -357 0
-359 -339 0
-359 348 0
359 339 -348 0
-360 -307 0
-360 -336 0
360 307 336 0
-361 359 0
-361 360 0
361 -359 -360 0
-362 -358 0
-362 -361 0
362 358 361 0
-363 -354 0
-363 362 0
363 354 -362 0
-364 355 0
-364 363 0
364 -355 -363 0
-365 -356 0
-365 364 0
365 356 -364 0
-366 -346 0
-366 360 0
366 346 -360 0
-367 22 0
-367 -366 0
367 -22 366 0
-368 -354 0
-368 367 0
368 354 -367 0
-369 364 0
-369 368 0
369 -364 -368 0
-370 365 0
-370 -369 0
370 -365 369 0
-371 348 0
-371 359 0
371 -348 -359 0
-372 361 0
-372 -371 0
372 -361 371 0
-373 -367 0
-373 372 0
373 367 -372 0
-374 -363 0
-374 -373 0
374 363 373 0
-375 -24 0
-375 373 0
375 24 -373 0
-376 -374 0
-376 -375 0
376 374 375 0
-377 346 0
-377 349 0
377 -346 -349 0
-378 -371 0
-378 377 0
378 371 -377 0
-379 -23 0
-379 -378 0
379 23 378 0
-380 -363 0
-380 -379 0
380 363 379 0
-381 -355 0
-381 -363 0
381 355 363 0
-382 -380 0
-382 381 0
382 380 -381 0
-383 376 0
-383 382 0
383 -376 -382 0
-384 -370 0
-384 -383 0
384 370 383 0
-385 362 0
-385 373 0
385 -362 -373 0
-386 -381 0
-386 385 0
386 381 -385 0
-387 -364 0
-387 -374 0
387 364 374 0
-388 -386 0
-388 387 0
388 386 -387 0
-389 362 0
-389 372 0
389 -362 -372 0
-390 -351 0
-390 358 0
390 351 -358 0
-391 351 0
-391 358 0
391 -351 -358 0
-392 390 0
-392 391 0
392 -390 -391 0
-393 -389 0
-393 392 0
393 389 -392 0
-394 -24 0
-394 -368 0
394 24 368 0
-395 -393 0
-395 394 0
395 393 -394 0
-396 -381 0
-396 -393 0
396 381 393 0
-397 -395 0
-397 396 0
397 395 -396 0
-398 -388 0
-398 -397 0
398 388 397 0
-399 384 0
-399 -398 0
399 -384 398 0
-400 -374 0
-400 395 0
400 374 -395 0
-401 -388 0
-401 400 0
401 388 -400 0
-402 365 0
-402 -395 0
402 -365 395 0
-403 -370 0
-403 -402 0
403 370 402 0
-404 -401 0
-404 403 0
404 401 -403 0
-405 -399 0
-405 404 0
405 399 -404 0
-406 382 0
-406 -393 0
406 -382 393 0
-407 -383 0
-407 406 0
407 383 -406 0
-408 -374 0
-408 -381 0
408 374 381 0
-409 389 0
-409 -408 0
409 -389 408 0
-410 -400 0
-410 409 0
410 400 -409 0
-411 -407 0
-411 410 0
411 407 -410 0
-412 404 0
-412 -411 0
412 -404 411 0
-413 405 0
-413 -412 0
413 -405 412 0
-414 354 0
-414 -367 0
414 -354 367 0
-415 389 0
-415 -414 0
415 -389 414 0
-416 380 0
-416 415 0
416 -380 -415 0
-417 396 0
-417 416 0
417 -396 -416 0
-418 -409 0
-418 417 0
418 409 -417 0
-419 388 0
-419 -397 0
419 -388 397 0
-420 -418 0
-420 419 0
420 418 -419 0
-421 -404 0
-421 420 0
421 404 -420 0
-422 25 0
-422 397 0
422 -25 -397 0
-423 407 0
-423 -422 0
423 -407 422 0
-424 420 0
-424 -423 0
424 -420 423 0
-425 -421 0
-425 424 0
425 421 -424 0
-426 413 0
-426 -425 0
426 -413 425 0
-427 418 0
-427 -419 0
427 -418 419 0
-428 -420 0
-428 -427 0
428 420 427 0
-429 26 0
-429 -428 0
429 -26 428 0
-430 -26 0
-430 -424 0
430 26 424 0
-431 429 0
-431 430 0
431 -429 -430 0
-432 426 0
-432 431 0
432 -426 -431 0
-433 424 0
-433 -425 0
433 -424 425 0
-434 431 0
-434 -433 0
434 -431 433 0
-435 432 0
-435 434 0
435 -432 -434 0
-436 28 0
-436 435 0
436 -28 -435 0
-437 395 0
-437 -409 0
437 -395 409 0
-438 -410 0
-438 437 0
438 410 -437 0
-439 423 0
-439 -438 0
439 -423 438 0
-440 421 0
-440 439 0
440 -421 -439 0
-441 384 0
-441 -418 0
441 -384 418 0
-442 411 0
-442 441 0
442 -411 -441 0
-443 -404 0
-443 -442 0
443 404 442 0
-444 440 0
-444 -443 0
444 -440 443 0
-445 -433 0
-445 444 0
445 433 -444 0
-446 -398 0
-446 -419 0
446 398 419 0
-447 -384 0
-447 402 0
447 384 -402 0
-448 446 0
-448 447 0
448 -446 -447 0
-449 -428 0
-449 448 0
449 428 -448 0
-450 27 0
-450 449 0
450 -27 -449 0
-451 440 0
-451 -443 0
451 -440 443 0
-452 -450 0
-452 -451 0
452 450 451 0
-453 445 0
-453 452 0
453 -445 -452 0
-454 28 0
-454 453 0
454 -28 -453 0
-455 436 0
-455 -454 0
455 -436 454 0
-456 -399 0
-456 403 0
456 399 -403 0
-457 -424 0
-457 -456 0
457 424 456 0
-458 -430 0
-458 457 0
458 430 -457 0
-459 -424 0
-459 -457 0
459 424 457 0
-460 458 0
-460 459 0
460 -458 -459 0
-461 448 0
-461 456 0
461 -448 -456 0
-462 429 0
-462 461 0
462 -429 -461 0
-463 -426 0
-463 -462 0
463 426 462 0
-464 -460 0
-464 -463 0
464 460 463 0
-465 453 0
-465 -464 0
465 -453 464 0
-466 -458 0
-466 459 0
466 458 -459 0
-467 -445 0
-467 -466 0
467 445 466 0
-468 -426 0
-468 -466 0
468 426 466 0
-469 467 0
-469 468 0
469 -467 -468 0
-470 465 0
-470 -469 0
470 -465 469 0
-471 -455 0
-471 -470 0
471 455 470 0
-472 435 0
-472 -453 0
472 -435 453 0
-473 454 0
-473 -472 0
473 -454 472 0
-474 -470 0
-474 473 0
474 470 -473 0
-475 -471 0
-475 -474 0
475 471 474 0
-476 430 0
-476 462 0
476 -430 -462 0
-477 -429 0
-477 -449 0
477 429 449 0
-478 -458 0
-478 -477 0
478 458 477 0
-479 476 0
-479 -478 0
479 -476 478 0
-480 -468 0
-480 479 0
480 468 -479 0
-481 436 0
-481 -480 0
481 -436 480 0
-482 455 0
-482 481 0
482 -455 -481 0
-483 -471 0
-483 -482 0
483 471 482 0
-484 -475 0
-484 483 0
484 475 -483 0
-485 28 0
-485 467 0
485 -28 -467 0
-486 480 0
-486 -485 0
486 -480 485 0
-487 432 0
-487 434 0
487 -432 -434 0
-488 -464 0
-488 487 0
488 464 -487 0
-489 -487 0
-489 -488 0
489 487 488 0
-490 486 0
-490 489 0
490 -486 -489 0
-491 31 0
-491 490 0
491 -31 -490 0
-492 457 0
-492 477 0
492 -457 -477 0
-493 -459 0
-493 -492 0
493 459 492 0
-494 445 0
-494 466 0
494 -445 -466 0
-495 -493 0
-495 494 0
495 493 -494 0
-496 488 0
-496 495 0
496 -488 -495 0
-497 -470 0
-497 496 0
497 470 -496 0
-498 -490 0
-498 497 0
498 490 -497 0
-499 491 0
-499 -498 0
499 -491 498 0
-500 -484 0
-500 -499 0
500 484 499 0
-501 -481 0
-501 489 0
501 481 -489 0
-502 -497 0
-502 501 0
502 497 -501 0
-503 471 0
-503 501 0
503 -471 -501 0
-504 502 0
-504 -503 0
504 -502 503 0
-505 30 0
-505 473 0
505 -30 -473 0
-506 -465 0
-506 472 0
506 465 -472 0
-507 29 0
-507 -469 0
507 -29 469 0
-508 506 0
-508 -507 0
508 -506 507 0
-509 -505 0
-509 -508 0
509 505 508 0
-510 31 0
-510 474 0
510 -31 -474 0
-511 509 0
-511 -510 0
511 -509 510 0
-512 -504 0
-512 -511 0
512 504 511 0
-513 -500 0
-513 -512 0
513 500 512 0
-514 -33 0
-514 513 0
514 33 -513 0
-515 491 0
-515 -498 0
515 -491 498 0
-516 -483 0
-516 509 0
516 483 -509 0
-517 515 0
-517 -516 0
517 -515 516 0
-518 491 0
-518 509 0
518 -491 -509 0
-519 -511 0
-519 518 0
519 511 -518 0
-520 -517 0
-520 519 0
520 517 -519 0
-521 -513 0
-521 -520 0
521 513 520 0
-522 -514 0
-522 521 0
522 514 -521 0
-523 484 0
-523 -504 0
523 -484 504 0
-524 455 0
-524 -496 0
524 -455 496 0
-525 -482 0
-525 524 0
525 482 -524 0
-526 -475 0
-526 525 0
526 475 -525 0
-527 -511 0
-527 526 0
527 511 -526 0
-528 523 0
-528 -527 0
528 -523 527 0
-529 516 0
-529 518 0
529 -516 -518 0
-530 -512 0
-530 -529 0
530 512 529 0
-531 528 0
-531 530 0
531 -528 -530 0
-532 -498 0
-532 -499 0
532 498 499 0
-533 -512 0
-533 -532 0
533 512 532 0
-534 -513 0
-534 -533 0
534 513 533 0
-535 531 0
-535 -534 0
535 -531 534 0
-536 522 0
-536 -535 0
536 -522 535 0
-537 -32 0
-537 529 0
537 32 -529 0
-538 -530 0
-538 -537 0
538 530 537 0
-539 530 0
-539 -533 0
539 -530 533 0
-540 -538 0
-540 -539 0
540 538 539 0
-541 -490 0
-541 -524 0
541 490 524 0
-542 -510 0
-542 -541 0
542 510 541 0
-543 -510 0
-543 525 0
543 510 -525 0
-544 -542 0
-544 -543 0
544 542 543 0
-545 529 0
-545 544 0
545 -529 -544 0
-546 533 0
-546 545 0
546 -533 -545 0
-547 538 0
-547 546 0
547 -538 -546 0
-548 540 0
-548 -547 0
548 -540 547 0
-549 536 0
-549 548 0
549 -536 -548 0
-550 -522 0
-550 -535 0
550 522 535 0
-551 -536 0
-551 550 0
551 536 -550 0
-552 549 0
-552 551 0
552 -549 -551 0
-553 -500 0
-553 544 0
553 500 -544 0
-554 -530 0
-554 553 0
554 530 -553 0
-555 521 0
-555 554 0
555 -521 -554 0
-556 538 0
-556 -555 0
556 -538 555 0
-557 -548 0
-557 556 0
557 548 -556 0
-558 548 0
-558 -550 0
558 -548 550 0
-559 -557 0
-559 -558 0
559 557 558 0
-560 552 0
-560 559 0
560 -552 -559 0
-561 -534 0
-561 -539 0
561 534 539 0
-562 -547 0
-562 -561 0
562 547 561 0
-563 -537 0
-563 553 0
563 537 -553 0
-564 -534 0
-564 -563 0
564 534 563 0
-565 -522 0
-565 -564 0
565 522 564 0
-566 562 0
-566 565 0
566 -562 -565 0
-567 536 0
-567 565 0
567 -536 -565 0
-568 566 0
-568 567 0
568 -566 -567 0
-569 521 0
-569 531 0
569 -521 -531 0
-570 522 0
-570 -569 0
570 -522 569 0
-571 556 0
-571 570 0
571 -556 -570 0
-572 556 0
-572 570 0
572 -556 -570 0
-573 571 0
-573 572 0
573 -571 -572 0
-574 568 0
-574 573 0
574 -568 -573 0
-575 -557 0
-575 -571 0
575 557 571 0
-576 -551 0
-576 567 0
576 551 -567 0
-577 575 0
-577 576 0
577 -575 -576 0
-578 -574 0
-578 -577 0
578 574 577 0
-579 560 0
-579 578 0
579 -560 -578 0
-580 -568 0
-580 575 0
580 568 -575 0
-581 560 0
-581 580 0
581 -560 -580 0
-582 36 0
-582 -581 0
582 -36 581 0
-583 -574 0
-583 580 0
583 574 -580 0
-584 566 0
-584 -572 0
584 -566 572 0
-585 -531 0
-585 -554 0
585 531 554 0
-586 564 0
-586 585 0
586 -564 -585 0
-587 550 0
-587 -586 0
587 -550 586 0
-588 -567 0
-588 587 0
588 567 -587 0
-589 584 0
-589 588 0
589 -584 -588 0
-590 577 0
-590 589 0
590 -577 -589 0
-591 -583 0
-591 -590 0
591 583 590 0
-592 582 0
-592 -591 0
592 -582 591 0
-593 -579 0
-593 -592 0
593 579 592 0
-594 558 0
-594 -587 0
594 -558 587 0
-595 -575 0
-595 -594 0
595 575 594 0
-596 589 0
-596 595 0
596 -589 -595 0
-597 590 0
-597 -596 0
597 -590 596 0
-598 590 0
-598 -596 0
598 -590 596 0
-599 597 0
-599 598 0
599 -597 -598 0
-600 500 0
-600 519 0
600 -500 -519 0
-601 -520 0
-601 600 0
601 520 -600 0
-602 -546 0
-602 601 0
602 546 -601 0
-603 -569 0
-603 602 0
603 569 -602 0
-604 34 0
-604 603 0
604 -34 -603 0
-605 -572 0
-605 604 0
605 572 -604 0
-606 576 0
-606 -605 0
606 -576 605 0
-607 -568 0
-607 -584 0
607 568 584 0
-608 606 0
-608 607 0
608 -606 -607 0
-609 -578 0
-609 -608 0
609 578 608 0
-610 -579 0
-610 609 0
610 579 -609 0
-611 -599 0
-611 -610 0
611 599 610 0
-612 -593 0
-612 -611 0
612 593 611 0
-613 -580 0
-613 595 0
613 580 -595 0
-614 -37 0
-614 -613 0
614 37 613 0
-615 574 0
-615 589 0
615 -574 -589 0
-616 578 0
-616 615 0
616 -578 -615 0
-617 -582 0
-617 616 0
617 582 -616 0
-618 614 0
-618 617 0
618 -614 -617 0
-619 -552 0
-619 568 0
619 552 -568 0
-620 -35 0
-620 -619 0
620 35 619 0
-621 608 0
-621 -620 0
621 -608 620 0
-622 583 0
-622 -613 0
622 -583 613 0
-623 621 0
-623 -622 0
623 -621 622 0
-624 38 0
-624 623 0
624 -38 -623 0
-625 -618 0
-625 -624 0
625 618 624 0
-626 -612 0
-626 -625 0
626 612 625 0
-627 -579 0
-627 622 0
627 579 -622 0
-628 38 0
-628 -627 0
628 -38 627 0
-629 -624 0
-629 -628 0
629 624 628 0
-630 -39 0
-630 618 0
630 39 -618 0
-631 -629 0
-631 -630 0
631 629 630 0
-632 626 0
-632 631 0
632 -626 -631 0
-633 38 0
-633 -623 0
633 -38 623 0
-634 -579 0
-634 -621 0
634 579 621 0
-635 609 0
-635 -634 0
635 -609 634 0
-636 -633 0
-636 635 0
636 633 -635 0
-637 -629 0
-637 -636 0
637 629 636 0
-638 37 0
-638 582 0
638 -37 -582 0
-639 627 0
-639 638 0
639 -627 -638 0
-640 624 0
-640 639 0
640 -624 -639 0
-641 -636 0
-641 640 0
641 636 -640 0
-642 637 0
-642 641 0
642 -637 -641 0
-643 -632 0
-643 642 0
643 632 -642 0
-644 -628 0
-644 -639 0
644 628 639 0
-645 640 0
-645 644 0
645 -640 -644 0
-646 -40 0
-646 645 0
646 40 -645 0
-647 626 0
-647 -646 0
647 -626 646 0
-648 643 0
-648 647 0
648 -643 -647 0
-649 614 0
-649 627 0
649 -614 -627 0
-650 -639 0
-650 649 0
650 639 -649 0
-651 -618 0
-651 635 0
651 618 -635 0
-652 650 0
-652 -651 0
652 -650 651 0
-653 641 0
-653 -652 0
653 -641 652 0
-654 642 0
-654 653 0
654 -642 -653 0
-655 -643 0
-655 654 0
655 643 -654 0
-656 -648 0
-656 -655 0
656 648 655 0
-657 -631 0
-657 -637 0
657 631 637 0
-658 637 0
-658 641 0
658 -637 -641 0
-659 657 0
-659 -658 0
659 -657 658 0
-660 -39 0
-660 -611 0
660 39 611 0
-661 651 0
-661 660 0
661 -651 -660 0
-662 652 0
-662 -661 0
662 -652 661 0
-663 653 0
-663 662 0
663 -653 -662 0
-664 -659 0
-664 -663 0
664 659 663 0
-665 -630 0
-665 660 0
665 630 -660 0
-666 633 0
-666 -640 0
666 -633 640 0
-667 665 0
-667 -666 0
667 -665 666 0
-668 -662 0
-668 667 0
668 662 -667 0
-669 -657 0
-669 -667 0
669 657 667 0
-670 668 0
-670 669 0
670 -668 -669 0
-671 -664 0
-671 670 0
671 664 -670 0
-672 -656 0
-672 -671 0
672 656 671 0
-673 637 0
-673 -645 0
673 -637 645 0
-674 646 0
-674 673 0
674 -646 -673 0
-675 659 0
-675 674 0
675 -659 -674 0
-676 -643 0
-676 -675 0
676 643 675 0
-677 669 0
-677 -670 0
677 -669 670 0
-678 -676 0
-678 677 0
678 676 -677 0
-679 672 0
-679 -678 0
679 -672 678 0
-680 655 0
-680 664 0
680 -655 -664 0
-681 626 0
-681 637 0
681 -626 -637 0
-682 632 0
-682 681 0
682 -632 -681 0
-683 -654 0
-683 -682 0
683 654 682 0
-684 -647 0
-684 -683 0
684 647 683 0
-685 -680 0
-685 -684 0
685 680 684 0
-686 -672 0
-686 685 0
686 672 -685 0
-687 679 0
-687 -686 0
687 -679 686 0
-688 -654 0
-688 674 0
688 654 -674 0
-689 -683 0
-689 -688 0
689 683 688 0
-690 664 0
-690 -688 0
690 -664 688 0
-691 689 0
-691 -690 0
691 -689 690 0
-692 -653 0
-692 -681 0
692 653 681 0
-693 654 0
-693 -692 0
693 -654 692 0
-694 688 0
-694 -693 0
694 -688 693 0
-695 -676 0
-695 694 0
695 676 -694 0
-696 691 0
-696 -695 0
696 -691 695 0
-697 -674 0
-697 682 0
697 674 -682 0
-698 -41 0
-698 697 0
698 41 -697 0
-699 694 0
-699 698 0
699 -694 -698 0
-700 678 0
-700 699 0
700 -678 -699 0
-701 -696 0
-701 700 0
701 696 -700 0
-702 687 0
-702 701 0
702 -687 -701 0
-703 -676 0
-703 680 0
703 676 -680 0
-704 -698 0
-704 703 0
704 698 -703 0
-705 685 0
-705 699 0
705 -685 -699 0
-706 -704 0
-706 -705 0
706 704 705 0
-707 696 0
-707 -705 0
707 -696 705 0
-708 -706 0
-708 707 0
708 706 -707 0
-709 -702 0
-709 708 0
709 702 -708 0
-710 -677 0
-710 -682 0
710 677 682 0
-711 672 0
-711 710 0
711 -672 -710 0
-712 678 0
-712 711 0
712 -678 -711 0
-713 706 0
-713 712 0
713 -706 -712 0
-714 -684 0
-714 -694 0
714 684 694 0
-715 -685 0
-715 714 0
715 685 -714 0
-716 676 0
-716 698 0
716 -676 -698 0
-717 710 0
-717 -716 0
717 -710 716 0
-718 715 0
-718 -717 0
718 -715 717 0
-719 -686 0
-719 704 0
719 686 -704 0
-720 -718 0
-720 -719 0
720 718 719 0
-721 713 0
-721 -720 0
721 -713 720 0
-722 709 0
-722 721 0
722 -709 -721 0
-723 715 0
-723 717 0
723 -715 -717 0
-724 -685 0
-724 -710 0
724 685 710 0
-725 711 0
-725 -724 0
725 -711 724 0
-726 723 0
-726 725 0
726 -723 -725 0
-727 719 0
-727 -726 0
727 -719 726 0
-728 709 0
-728 727 0
728 -709 -727 0
-729 722 0
-729 -728 0
729 -722 728 0
-730 679 0
-730 -717 0
730 -679 717 0
-731 685 0
-731 730 0
731 -685 -730 0
-732 707 0
-732 -719 0
732 -707 719 0
-733 -731 0
-733 -732 0
733 731 732 0
-734 -727 0
-734 733 0
734 727 -733 0
-735 -722 0
-735 -734 0
735 722 734 0
-736 729 0
-736 735 0
736 -729 -735 0
-737 -43 0
-737 736 0
737 43 -736 0
-738 701 0
-738 -719 0
738 -701 719 0
-739 -708 0
-739 -738 0
739 708 738 0
-740 727 0
-740 -739 0
740 -727 739 0
-741 739 0
-741 -740 0
741 -739 740 0
-742 42 0
-742 -741 0
742 -42 741 0
-743 687 0
-743 707 0
743 -687 -707 0
-744 720 0
-744 743 0
744 -720 -743 0
-745 -739 0
-745 744 0
745 739 -744 0
-746 -728 0
-746 745 0
746 728 -745 0
-747 -713 0
-747 -731 0
747 713 731 0
-748 713 0
-748 720 0
748 -713 -720 0
-749 -747 0
-749 748 0
749 747 -748 0
-750 -701 0
-750 -706 0
750 701 706 0
-751 738 0
-751 750 0
751 -738 -750 0
-752 -708 0
-752 732 0
752 708 -732 0
-753 751 0
-753 -752 0
753 -751 752 0
-754 -749 0
-754 -753 0
754 749 753 0
-755 746 0
-755 754 0
755 -746 -754 0
-756 -742 0
-756 -755 0
756 742 755 0
-757 -727 0
-757 748 0
757 727 -748 0
-758 734 0
-758 757 0
758 -734 -757 0
-759 722 0
-759 -757 0
759 -722 757 0
-760 758 0
-760 759 0
760 -758 -759 0
-761 -729 0
-761 741 0
761 729 -741 0
-762 -760 0
-762 761 0
762 760 -761 0
-763 -756 0
-763 762 0
763 756 -762 0
-764 737 0
-764 763 0
764 -737 -763 0
-765 42 0
-765 -746 0
765 -42 746 0
-766 -736 0
-766 765 0
766 736 -765 0
-767 756 0
-767 -766 0
767 -756 766 0
-768 750 0
-768 752 0
768 -750 -752 0
-769 727 0
-769 733 0
769 -727 -733 0
-770 -768 0
-770 769 0
770 768 -769 0
-771 741 0
-771 -770 0
771 -741 770 0
-772 765 0
-772 -771 0
772 -765 771 0
-773 -762 0
-773 -772 0
773 762 772 0
-774 -767 0
-774 773 0
774 767 -773 0
-775 -764 0
-775 -774 0
775 764 774 0
-776 44 0
-776 -764 0
776 -44 764 0
-777 775 0
-777 776 0
777 -775 -776 0
-778 -746 0
-778 -765 0
778 746 765 0
-779 729 0
-779 735 0
779 -729 -735 0
-780 745 0
-780 768 0
780 -745 -768 0
-781 -770 0
-781 780 0
781 770 -780 0
-782 -779 0
-782 781 0
782 779 -781 0
-783 -778 0
-783 -782 0
783 778 782 0
-784 779 0
-784 -781 0
784 -779 781 0
-785 -782 0
-785 784 0
785 782 -784 0
-786 783 0
-786 -785 0
786 -783 785 0
-787 -767 0
-787 785 0
787 767 -785 0
-788 -786 0
-788 787 0
788 786 -787 0
-789 729 0
-789 -758 0
789 -729 758 0
-790 -779 0
-790 789 0
790 779 -789 0
-791 771 0
-791 781 0
791 -771 -781 0
-792 790 0
-792 791 0
792 -790 -791 0
-793 767 0
-793 -792 0
793 -767 792 0
-794 -783 0
-794 793 0
794 783 -793 0
-795 788 0
-795 794 0
795 -788 -794 0
-796 -777 0
-796 -795 0
796 777 795 0
-797 771 0
-797 784 0
797 -771 -784 0
-798 773 0
-798 -797 0
798 -773 797 0
-799 -763 0
-799 797 0
799 763 -797 0
-800 798 0
-800 -799 0
800 -798 799 0
-801 782 0
-801 -784 0
801 -782 784 0
-802 778 0
-802 -791 0
802 -778 791 0
-803 801 0
-803 802 0
803 -801 -802 0
-804 -786 0
-804 803 0
804 786 -803 0
-805 800 0
-805 804 0
805 -800 -804 0
-806 -46 0
-806 -805 0
806 46 805 0
-807 796 0
-807 806 0
807 -796 -806 0
-808 -47 0
-808 806 0
808 47 -806 0
-809 -807 0
-809 -808 0
809 807 808 0
-810 767 0
-810 792 0
810 -767 -792 0
-811 44 0
-811 -810 0
811 -44 810 0
-812 45 0
-812 -811 0
812 -45 811 0
-813 -775 0
-813 -811 0
813 775 811 0
-814 812 0
-814 813 0
814 -812 -813 0
-815 777 0
-815 805 0
815 -777 -805 0
-816 -814 0
-816 815 0
816 814 -815 0
-817 798 0
-817 803 0
817 -798 -803 0
-818 -800 0
-818 817 0
818 800 -817 0
-819 787 0
-819 -803 0
819 -787 803 0
-820 -794 0
-820 -819 0
820 794 819 0
-821 -818 0
-821 -820 0
821 818 820 0
-822 47 0
-822 -821 0
822 -47 821 0
-823 816 0
-823 822 0
823 -816 -822 0
-824 809 0
-824 823 0
824 -809 -823 0
-825 -773 0
-825 -804 0
825 773 804 0
-826 -788 0
-826 -817 0
826 788 817 0
-827 -825 0
-827 826 0
827 825 -826 0
-828 46 0
-828 820 0
828 -46 -820 0
-829 827 0
-829 -828 0
829 -827 828 0
-830 796 0
-830 829 0
830 -796 -829 0
-831 49 0
-831 830 0
831 -49 -830 0
-832 -824 0
-832 -831 0
832 824 831 0
-833 813 0
-833 825 0
833 -813 -825 0
-834 813 0
-834 826 0
834 -813 -826 0
-835 -833 0
-835 834 0
835 833 -834 0
-836 806 0
-836 828 0
836 -806 -828 0
-837 835 0
-837 836 0
837 -835 -836 0
-838 -830 0
-838 837 0
838 830 -837 0
-839 823 0
-839 830 0
839 -823 -830 0
-840 838 0
-840 -839 0
840 -838 839 0
-841 -832 0
-841 -840 0
841 832 840 0
-842 47 0
-842 -796 0
842 -47 796 0
-843 816 0
-843 -842 0
843 -816 842 0
-844 808 0
-844 836 0
844 -808 -836 0
-845 843 0
-845 844 0
845 -843 -844 0
-846 -838 0
-846 845 0
846 838 -845 0
-847 48 0
-847 -835 0
847 -48 835 0
-848 843 0
-848 -847 0
848 -843 847 0
-849 831 0
-849 848 0
849 -831 -848 0
-850 846 0
-850 -849 0
850 -846 849 0
-851 -841 0
-851 850 0
851 841 -850 0
-852 50 0
-852 831 0
852 -50 -831 0
-853 846 0
-853 -852 0
853 -846 852 0
-854 -49 0
-854 844 0
854 49 -844 0
-855 -848 0
-855 854 0
855 848 -854 0
-856 -50 0
-856 -839 0
856 50 839 0
-857 -855 0
-857 856 0
857 855 -856 0
-858 853 0
-858 857 0
858 -853 -857 0
-859 851 0
-859 858 0
859 -851 -858 0
-860 -814 0
-860 -827 0
860 814 827 0
-861 48 0
-861 -860 0
861 -48 860 0
-862 822 0
-862 834 0
862 -822 -834 0
-863 861 0
-863 862 0
863 -861 -862 0
-864 -861 0
-864 863 0
864 861 -863 0
-865 849 0
-865 -864 0
865 -849 864 0
-866 -49 0
-866 -844 0
866 49 844 0
-867 50 0
-867 -866 0
867 -50 866 0
-868 -848 0
-868 -866 0
868 848 866 0
-869 -867 0
-869 -868 0
869 867 868 0
-870 857 0
-870 869 0
870 -857 -869 0
-871 865 0
-871 870 0
871 -865 -870 0
-872 -859 0
-872 -871 0
872 859 871 0
-873 -54 0
-873 -872 0
873 54 872 0
-874 861 0
-874 868 0
874 -861 -868 0
-875 -865 0
-875 -874 0
875 865 874 0
-876 -51 0
-876 -874 0
876 51 874 0
-877 -875 0
-877 -876 0
877 875 876 0
-878 -51 0
-878 -865 0
878 51 865 0
-879 52 0
-879 -878 0
879 -52 878 0
-880 877 0
-880 879 0
880 -877 -879 0
-881 846 0
-881 -868 0
881 -846 868 0
-882 -869 0
-882 -881 0
882 869 881 0
-883 -51 0
-883 882 0
883 51 -882 0
-884 -875 0
-884 882 0
884 875 -882 0
-885 -883 0
-885 -884 0
885 883 884 0
-886 880 0
-886 885 0
886 -880 -885 0
-887 -873 0
-887 -886 0
887 873 886 0
-888 -873 0
-888 887 0
888 873 -887 0
-889 -880 0
-889 -885 0
889 880 885 0
-890 856 0
-890 867 0
890 -856 -867 0
-891 51 0
-891 -890 0
891 -51 890 0
-892 858 0
-892 -891 0
892 -858 891 0
-893 871 0
-893 892 0
893 -871 -892 0
-894 -54 0
-894 -893 0
894 54 893 0
-895 -879 0
-895 -883 0
895 879 883 0
-896 53 0
-896 884 0
896 -53 -884 0
-897 895 0
-897 -896 0
897 -895 896 0
-898 -894 0
-898 897 0
898 894 -897 0
-899 -889 0
-899 898 0
899 889 -898 0
-900 851 0
-900 870 0
900 -851 -870 0
-901 859 0
-901 900 0
901 -859 -900 0
-902 893 0
-902 901 0
902 -893 -901 0
-903 873 0
-903 -902 0
903 -873 902 0
-904 897 0
-904 903 0
904 -897 -903 0
-905 -899 0
-905 -904 0
905 899 904 0
-906 -888 0
-906 905 0
906 888 -905 0
-907 872 0
-907 901 0
907 -872 -901 0
-908 94 0
-908 -147 0
908 -94 147 0
-909 873 0
-909 -908 0
909 -873 908 0
-910 -907 0
-910 909 0
910 907 -909 0
-911 873 0
-911 -889 0
911 -873 889 0
-912 873 0
-912 911 0
912 -873 -911 0
-913 -910 0
-913 -912 0
913 910 912 0
-914 906 0
-914 913 0
914 -906 -913 0
-915 -873 0
-915 908 0
915 873 -908 0
-916 886 0
-916 915 0
916 -886 -915 0
-917 -873 0
-917 908 0
917 873 -908 0
-918 897 0
-918 917 0
918 -897 -917 0
-919 -841 0
-919 -865 0
919 841 865 0
-920 -868 0
-920 919 0
920 868 -919 0
-921 53 0
-921 -920 0
921 -53 920 0
-922 859 0
-922 -879 0
922 -859 879 0
-923 921 0
-923 -922 0
923 -921 922 0
-924 873 0
-924 -894 0
924 -873 894 0
-925 923 0
-925 924 0
925 -923 -924 0
-926 -918 0
-926 -925 0
926 918 925 0
-927 -916 0
-927 926 0
927 916 -926 0
-928 880 0
-928 -896 0
928 -880 896 0
-929 -886 0
-929 -886 0
929 886 886 0
-930 -928 0
-930 929 0
930 928 -929 0
-931 907 0
-931 -908 0
931 -907 908 0
-932 923 0
-932 931 0
932 -923 -931 0
-933 -873 0
-933 -886 0
933 873 886 0
-934 -894 0
-934 933 0
934 894 -933 0
-935 -932 0
-935 -934 0
935 932 934 0
-936 -930 0
-936 935 0
936 930 -935 0
-937 873 0
-937 -889 0
937 -873 889 0
-938 -894 0
-938 937 0
938 894 -937 0
-939 -886 0
-939 -923 0
939 886 923 0
-940 -928 0
-940 939 0
940 928 -939 0
-941 -938 0
-941 -940 0
941 938 940 0
-942 -889 0
-942 -928 0
942 889 928 0
-943 902 0
-943 942 0
943 -902 -942 0
-944 897 0
-944 -907 0
944 -897 907 0
-945 -908 0
-945 944 0
945 908 -944 0
-946 -943 0
-946 -945 0
946 943 945 0
-947 894 0
-947 897 0
947 -894 -897 0
-948 -923 0
-948 947 0
948 923 -947 0
-949 55 0
-949 928 0
949 -55 -928 0
-950 -923 0
-950 949 0
950 923 -949 0
-951 886 0
-951 -907 0
951 -886 907 0
-952 -889 0
-952 951 0
952 889 -951 0
-953 -886 0
-953 928 0
953 886 -928 0
-954 -897 0
-954 953 0
954 897 -953 0
-955 902 0
-955 907 0
955 -902 -907 0
-956 886 0
-956 955 0
956 -886 -955 0
-957 -954 0
-957 -956 0
957 954 956 0
-958 -952 0
-958 957 0
958 952 -957 0
-959 -950 0
-959 958 0
959 950 -958 0
-960 -948 0
-960 959 0
960 948 -959 0
-961 946 0
-961 960 0
961 -946 -960 0
-962 907 0
-962 928 0
962 -907 -928 0
-963 -894 0
-963 962 0
963 894 -962 0
-964 -897 0
-964 -908 0
964 897 908 0
-965 -873 0
-965 964 0
965 873 -964 0
-966 -889 0
-966 923 0
966 889 -923 0
-967 886 0
-967 966 0
967 -886 -966 0
-968 -886 0
-968 -928 0
968 886 928 0
-969 -55 0
-969 968 0
969 55 -968 0
-970 908 0
-970 -908 0
970 -908 908 0
-971 902 0
-971 970 0
971 -902 -970 0
-972 -969 0
-972 -971 0
972 969 971 0
-973 -967 0
-973 972 0
973 967 -972 0
-974 -965 0
-974 973 0
974 965 -973 0
-975 -963 0
-975 974 0
975 963 -974 0
-976 -886 0
-976 889 0
976 886 -889 0
-977 -897 0
-977 976 0
977 897 -976 0
-978 -907 0
-978 -907 0
978 907 907 0
-979 907 0
-979 978 0
979 -907 -978 0
-980 -977 0
-980 -979 0
980 977 979 0
-981 975 0
-981 980 0
981 -975 -980 0
-982 961 0
-982 981 0
982 -961 -981 0
-983 941 0
-983 982 0
983 -941 -982 0
-984 936 0
-984 983 0
984 -936 -983 0
-985 927 0
-985 984 0
985 -927 -984 0
-986 873 0
-986 -902 0
986 -873 902 0
-987 873 0
-987 986 0
987 -873 -986 0
-988 -55 0
-988 -923 0
988 55 923 0
-989 -902 0
-989 988 0
989 902 -988 0
-990 -987 0
-990 -989 0
990 987 989 0
-991 -889 0
-991 -908 0
991 889 908 0
-992 -873 0
-992 991 0
992 873 -991 0
-993 -908 0
-993 923 0
993 908 -923 0
-994 886 0
-994 993 0
994 -886 -993 0
-995 894 0
-995 -894 0
995 -894 894 0
-996 889 0
-996 995 0
996 -889 -995 0
-997 -994 0
-997 -996 0
997 994 996 0
-998 -902 0
-998 -907 0
998 902 907 0
-999 55 0
-999 998 0
999 -55 -998 0
-1000 -55 0
-1000 -894 0
1000 55 894 0
-1001 894 0
-1001 1000 0
1001 -894 -1000 0
-1002 908 0
-1002 923 0
1002 -908 -923 0
-1003 -55 0
-1003 1002 0
1003 55 -1002 0
-1004 55 0
-1004 -889 0
1004 -55 889 0
-1005 55 0
-1005 1004 0
1005 -55 -1004 0
-1006 -1003 0
-1006 -1005 0
1006 1003 1005 0
-1007 -1001 0
-1007 1006 0
1007 1001 -1006 0
-1008 -999 0
-1008 1007 0
1008 999 -1007 0
-1009 997 0
-1009 1008 0
1009 -997 -1008 0
-1010 -992 0
-1010 1009 0
1010 992 -1009 0
-1011 894 0
-1011 -923 0
1011 -894 923 0
-1012 897 0
-1012 1011 0
1012 -897 -1011 0
-1013 -894 0
-1013 902 0
1013 894 -902 0
-1014 -889 0
-1014 1013 0
1014 889 -1013 0
-1015 -923 0
-1015 -928 0
1015 923 928 0
-1016 907 0
-1016 1015 0
1016 -907 -1015 0
-1017 -1014 0
-1017 -1016 0
1017 1014 1016 0
-1018 886 0
-1018 897 0
1018 -886 -897 0
-1019 897 0
-1019 1018 0
1019 -897 -1018 0
-1020 889 0
-1020 889 0
1020 -889 -889 0
-1021 907 0
-1021 1020 0
1021 -907 -1020 0
-1022 -1019 0
-1022 -1021 0
1022 1019 1021 0
-1023 1017 0
-1023 1022 0
1023 -1017 -1022 0
-1024 -1012 0
-1024 1023 0
1024 1012 -1023 0
-1025 -894 0
-1025 -907 0
1025 894 907 0
-1026 928 0
-1026 1025 0
1026 -928 -1025 0
-1027 -908 0
-1027 923 0
1027 908 -923 0
-1028 889 0
-1028 1027 0
1028 -889 -1027 0
-1029 -1026 0
-1029 -1028 0
1029 1026 1028 0
-1030 1024 0
-1030 1029 0
1030 -1024 -1029 0
-1031 894 0
-1031 -908 0
1031 -894 908 0
-1032 -886 0
-1032 1031 0
1032 886 -1031 0
-1033 55 0
-1033 907 0
1033 -55 -907 0
-1034 -873 0
-1034 1033 0
1034 873 -1033 0
-1035 -1032 0
-1035 -1034 0
1035 1032 1034 0
-1036 1030 0
-1036 1035 0
1036 -1030 -1035 0
-1037 1010 0
-1037 1036 0
1037 -1010 -1036 0
-1038 990 0
-1038 1037 0
1038 -990 -1037 0
-1039 985 0
-1039 1038 0
1039 -985 -1038 0
-1040 914 0
-1040 1039 0
1040 -914 -1039 0
-1041 -914 0
-1041 -1039 0
1041 914 1039 0
-1042 -1040 0
-1042 -1041 0
1042 1040 1041 0
1042 0
